Solver command line: []

Read LP format model from file C:\Users\wlhlm\AppData\Local\Temp\tmpp_2xogjj.pyomo.lp
Reading time = 0.04 seconds
objective: 18325 rows, 16631 columns, 41491 nonzeros
Set parameter TimeLimit to value 5000
Set parameter MIPGap to value 0.08
Gurobi Optimizer version 12.0.1 build v12.0.1rc0 (win64 - Windows 11.0 (26100.2))

CPU model: Intel(R) Core(TM) Ultra 7 258V, instruction set [SSE2|AVX|AVX2]
Thread count: 8 physical cores, 8 logical processors, using up to 8 threads

Non-default parameters:
TimeLimit  5000
MIPGap  0.08

Optimize a model with 18325 rows, 16631 columns and 41491 nonzeros
Model fingerprint: 0xe4c54565
Model has 167 quadratic constraints
Variable types: 14280 continuous, 2351 integer (2016 binary)
Coefficient statistics:
  Matrix range     [8e-03, 2e+02]
  QMatrix range    [1e+00, 1e+00]
  Objective range  [4e+01, 3e+02]
  Bounds range     [1e+00, 3e+00]
  RHS range        [2e-03, 1e+04]
Presolve removed 15968 rows and 13761 columns
Presolve time: 0.04s
Presolved: 2357 rows, 2870 columns, 8073 nonzeros
Variable types: 2217 continuous, 653 integer (653 binary)

Root relaxation: objective 3.836446e+06, 898 iterations, 0.00 seconds (0.01 work units)

    Nodes    |    Current Node    |     Objective Bounds      |     Work
 Expl Unexpl |  Obj  Depth IntInf | Incumbent    BestBd   Gap | It/Node Time

     0     0 3836446.01    0    1          - 3836446.01      -     -    0s
H    0     0                    3836446.0148 3836446.01  0.00%     -    0s

Explored 1 nodes (898 simplex iterations) in 0.08 seconds (0.09 work units)
Thread count was 8 (of 8 available processors)

Solution count 1: 3.83645e+06 

Optimal solution found (tolerance 8.00e-02)
Best objective 3.836446014816e+06, best bound 3.836446014816e+06, gap 0.0000%

